Base=4;
C=66;
start_setup=[|0,0,0,0,0,13,0,4,0,0,0,0,0,0,0,16
             |1,0,0,0,0,0,0,0,0,0,0,0,5,0,0,11
             |0,4,0,0,0,0,0,12,0,0,0,0,0,0,0,0
             |0,0,0,0,2,0,7,0,0,0,3,0,0,0,8,0
             |0,0,0,4,0,0,0,0,0,0,0,0,11,5,15,0
             |0,0,0,0,0,0,0,6,0,0,0,0,0,9,0,0
             |0,0,0,2,0,0,9,0,0,0,0,11,0,0,7,0
             |15,0,0,0,0,0,0,0,0,0,0,0,0,0,1,0
             |0,2,1,0,9,0,0,0,13,0,0,0,0,0,0,0
             |0,0,0,0,0,0,0,0,0,2,11,0,0,0,13,7
             |0,0,0,0,0,0,13,0,0,1,4,0,14,0,11,0
             |0,0,0,0,0,0,0,0,5,0,9,0,0,0,0,0
             |4,0,0,0,0,7,0,0,0,0,0,9,16,0,0,0
             |0,0,0,0,0,0,0,0,4,0,2,0,12,11,0,0
             |0,11,10,0,0,3,0,1,0,15,14,0,0,0,0,0
             |0,0,0,0,0,11,0,9,0,7,6,5,4,3,0,0
|];
target_sum=[37,47,33,28,2,49,26,36,11,40,51,21,15,13,80,78,52,17,16,38,31,96,36,9,11,53,18,42,14,9,89,15,10,3,37,19,5,21,114,18,44,119,32,34,62,28,54,33,15,12,8,15,14,6,44,6,23,60,18,14,23,7,44,47,14,60];
tile2cage=[
41,41,41,66,66,66,48,17,17,17,40,40,6,6,6,6
,41,41,41,66,66,48,48,17,53,53,14,40,2,2,6,38
,39,39,41,66,9,9,48,17,58,44,44,44,2,2,6,38
,39,39,39,39,39,11,11,11,58,37,44,36,36,36,50,50
,39,39,39,39,42,11,11,62,58,58,58,7,7,7,16,16
,39,39,39,42,42,11,11,54,34,58,19,19,33,21,16,60
,15,15,15,42,42,42,45,45,34,26,26,26,26,21,16,49
,15,15,15,15,42,42,45,45,45,3,3,56,5,21,16,49
,10,15,12,12,12,42,42,45,45,3,3,30,30,21,16,16
,10,46,46,65,25,25,42,64,64,64,32,29,31,31,16,16
,10,46,46,65,35,35,42,42,64,64,32,31,31,57,57,18
,10,4,4,28,35,35,22,22,64,64,43,31,61,61,61,18
,10,23,47,28,51,35,22,22,22,43,43,31,31,61,1,1
,8,23,47,28,28,59,22,22,22,27,43,31,63,63,1,52
,8,23,47,47,28,59,55,22,22,27,20,20,63,63,63,52
,8,23,47,47,55,55,55,55,13,13,20,20,24,24,24,52];
